SLURM_JOB_ID: 55402827
SLURM_JOB_USER: vsc34888
SLURM_JOB_ACCOUNT: lp_elect_gen_modeling
SLURM_JOB_NAME: 118_by_stages_loop_D_hnb_2
SLURM_CLUSTER_NAME: genius
SLURM_JOB_PARTITION: batch
SLURM_NNODES: 1
SLURM_NODELIST: r27i27n20
SLURM_JOB_CPUS_PER_NODE: 36
Date: Mon Dec  4 14:07:23 CET 2023
Walltime: 03-00:00:00
========================================================================
Activation OK
Starting runs

 #### Academic research license - for non-commercial use only #### 

IEEE118_ByStages_nc350
/lustre1/scratch/348/vsc34888/JointResearch/05.Models/06.Benchmarking/D.Representative_days_based_on_RES_and_Demand
gurobi
['oSN_Main_DCOPF.py', '--case', 'IEEE118_ByStages_nc350']
Namespace(case='IEEE118_ByStages_nc350', dir='/lustre1/scratch/348/vsc34888/JointResearch/05.Models/06.Benchmarking/D.Representative_days_based_on_RES_and_Demand', solver='gurobi')
Namespace(case='IEEE118_ByStages_nc350', dir='/lustre1/scratch/348/vsc34888/JointResearch/05.Models/06.Benchmarking/D.Representative_days_based_on_RES_and_Demand', solver='gurobi')
Reading    input data                 ...  1 s
Setting up input data                 ...  2 s
Generating objective function         ...  3 s
Generating operation & investment     ...  0 s
Generating balance                    ...  32 s
Generating storage operation          ...  0 s
Generating generation commitment      ...  83 s
Generating generation capacity        ...  80 s
Generating network    capacity        ...  105 s
Generating network    constraints     ...  271 s
Econometric analysis  constraints     ...  0 s
Set parameter Username
Set parameter TokenServer to value "SET-S-ME-LM3.luna.kuleuven.be"
Read LP format model from file /tmp/tmp_vmmk8_p.pyomo.lp
Reading time = 1.30 seconds
x1: 509304 rows, 362647 columns, 1315872 nonzeros
Set parameter QCPDual to value 1
Set parameter LogFile to value "/lustre1/scratch/348/vsc34888/JointResearch/05.Models/06.Benchmarking/D.Representative_days_based_on_RES_and_Demand/IEEE118_ByStages_nc350/openStarNet_IEEE118_ByStages_nc350.log"
Set parameter Method to value 2
Set parameter MIPFocus to value 1
Set parameter Presolve to value 2
Set parameter RINS to value 100
Set parameter MIPGap to value 0.01
Set parameter Threads to value 36
Set parameter TimeLimit to value 259200
Set parameter IterationLimit to value 760000000
Gurobi Optimizer version 9.5.0 build v9.5.0rc5 (linux64)
Thread count: 36 physical cores, 36 logical processors, using up to 36 threads
Optimize a model with 509304 rows, 362647 columns and 1315872 nonzeros
Model fingerprint: 0xfb51cf77
Variable types: 362602 continuous, 45 integer (45 binary)
Coefficient statistics:
  Matrix range     [2e-03, 9e+03]
  Objective range  [1e+00, 1e+00]
  Bounds range     [1e-04, 6e+00]
  RHS range        [1e-04, 6e+00]
Presolve removed 336641 rows and 171115 columns
Presolve time: 4.09s
Presolved: 172663 rows, 191532 columns, 623957 nonzeros
Variable types: 191487 continuous, 45 integer (45 binary)
Root relaxation presolved: 172663 rows, 191532 columns, 623957 nonzeros

Root barrier log...

Ordering time: 0.05s

Barrier statistics:
 Dense cols : 45
 AA' NZ     : 8.825e+05
 Factor NZ  : 3.389e+06 (roughly 170 MB of memory)
 Factor Ops : 9.452e+07 (less than 1 second per iteration)
 Threads    : 35

                  Objective                Residual
Iter       Primal          Dual         Primal    Dual     Compl     Time
   0   8.26475894e+06 -7.04403463e+08  1.34e+01 2.73e+02  6.03e+03     6s
   1   2.81517195e+06 -2.59550161e+08  4.25e+00 3.75e-08  1.51e+03     6s
   2   4.56948101e+05 -7.55040109e+07  3.16e-01 2.72e-08  2.05e+02     6s
   3   2.91844210e+05 -1.20959245e+07  5.33e-02 3.46e-09  2.86e+01     6s
   4   1.99084238e+05 -1.90760578e+06  1.21e-02 3.27e-10  4.56e+00     6s
   5   1.04216435e+05 -6.12818500e+05  4.94e-03 9.36e-11  1.53e+00     6s
   6   4.68274421e+04 -2.27571404e+05  2.04e-03 3.37e-11  5.81e-01     6s
   7   1.78254062e+04 -6.08797629e+04  5.83e-04 1.76e-11  1.66e-01     6s
   8   9.97073273e+03 -2.20448015e+04  2.54e-04 1.94e-11  6.75e-02     6s
   9   8.00107362e+03 -1.58272560e+04  1.87e-04 2.99e-11  5.02e-02     6s
  10   5.79222932e+03 -6.58169387e+03  1.18e-04 1.82e-12  2.61e-02     7s
  11   4.65025276e+03 -3.20529648e+03  8.78e-05 9.09e-13  1.66e-02     7s
  12   3.71104678e+03 -1.12749444e+03  6.40e-05 4.11e-11  1.02e-02     7s
  13   2.70284627e+03 -1.77424012e+02  4.04e-05 4.77e-11  6.07e-03     7s
  14   2.18845686e+03  1.43936659e+02  2.73e-05 6.02e-11  4.31e-03     7s
  15   1.91287254e+03  4.33201699e+02  2.00e-05 3.83e-11  3.12e-03     7s
  16   1.68014814e+03  5.89139787e+02  1.39e-05 3.62e-11  2.30e-03     7s
  17   1.61249478e+03  7.76936683e+02  1.21e-05 4.50e-11  1.76e-03     7s
  18   1.42219789e+03  8.98993300e+02  7.58e-06 2.98e-11  1.10e-03     7s
  19   1.36067186e+03  9.94933134e+02  6.03e-06 2.38e-11  7.71e-04     7s
  20   1.28949792e+03  1.04404654e+03  4.10e-06 1.82e-12  5.17e-04     7s
  21   1.23466782e+03  1.07808518e+03  2.67e-06 6.48e-11  3.30e-04     8s
  22   1.20537947e+03  1.09327618e+03  1.89e-06 4.61e-11  2.36e-04     8s
  23   1.18889457e+03  1.10630035e+03  1.44e-06 5.16e-11  1.74e-04     8s
  24   1.17819902e+03  1.11228717e+03  1.14e-06 6.76e-11  1.39e-04     8s
  25   1.17142077e+03  1.11312017e+03  9.61e-07 6.69e-11  1.23e-04     8s
  26   1.16269097e+03  1.12310646e+03  7.16e-07 9.09e-13  8.35e-05     8s
  27   1.15417193e+03  1.12923302e+03  5.01e-07 1.82e-12  5.26e-05     8s
  28   1.14850047e+03  1.13123307e+03  3.46e-07 1.82e-12  3.64e-05     8s
  29   1.14407072e+03  1.13274771e+03  2.15e-07 9.09e-13  2.39e-05     8s
  30   1.14169318e+03  1.13363300e+03  1.49e-07 9.09e-13  1.70e-05     9s
  31   1.14078033e+03  1.13433650e+03  1.21e-07 1.82e-12  1.36e-05     9s
  32   1.13916597e+03  1.13506420e+03  7.18e-08 9.09e-13  8.65e-06     9s
  33   1.13838698e+03  1.13608348e+03  4.93e-08 9.64e-12  4.86e-06     9s
  34   1.13790906e+03  1.13622226e+03  3.59e-08 7.46e-12  3.56e-06     9s
  35   1.13772341e+03  1.13627436e+03  3.05e-08 9.91e-12  3.06e-06     9s
  36   1.13748788e+03  1.13641588e+03  2.33e-08 1.12e-11  2.26e-06     9s
  37   1.13733731e+03  1.13651042e+03  1.87e-08 6.93e-12  1.74e-06     9s
  38   1.13726087e+03  1.13652130e+03  1.66e-08 7.01e-12  1.56e-06     9s
  39   1.13710481e+03  1.13662523e+03  1.24e-08 8.34e-12  1.01e-06    10s
  40   1.13699452e+03  1.13665927e+03  8.75e-09 1.24e-11  7.07e-07    10s
  41   1.13683687e+03  1.13667086e+03  7.61e-09 1.50e-11  3.50e-07    10s
  42   1.13675036e+03  1.13669661e+03  5.69e-09 1.29e-11  1.13e-07    10s
  43   1.13673227e+03  1.13672090e+03  1.81e-09 9.58e-12  2.40e-08    10s
  44   1.13672862e+03  1.13672370e+03  7.03e-10 9.86e-12  1.04e-08    10s
  45   1.13672733e+03  1.13672508e+03  2.70e-10 9.88e-12  4.76e-09    10s
  46   1.13672655e+03  1.13672620e+03  1.33e-10 3.21e-12  7.49e-10    10s
  47   1.13672639e+03  1.13672631e+03  1.30e-10 9.09e-13  1.63e-10    10s
  48   1.13672637e+03  1.13672636e+03  1.43e-10 1.36e-12  1.90e-11    10s

Barrier solved model in 48 iterations and 10.47 seconds (12.75 work units)
Optimal objective 1.13672637e+03


Root crossover log...

   31498 DPushes remaining with DInf 0.0000000e+00                11s
       0 DPushes remaining with DInf 0.0000000e+00                12s

   11159 PPushes remaining with PInf 0.0000000e+00                12s
       0 PPushes remaining with PInf 0.0000000e+00                15s

  Push phase complete: Pinf 0.0000000e+00, Dinf 7.2046473e-06     15s


Root simplex log...

Iteration    Objective       Primal Inf.    Dual Inf.      Time
   16962    1.1367264e+03   0.000000e+00   7.204612e-06     15s
   16965    1.1367264e+03   0.000000e+00   0.000000e+00     15s
   16965    1.1367264e+03   0.000000e+00   0.000000e+00     15s

Root relaxation: objective 1.136726e+03, 16965 iterations, 10.31 seconds (11.98 work units)

    Nodes    |    Current Node    |     Objective Bounds      |     Work
 Expl Unexpl |  Obj  Depth IntInf | Incumbent    BestBd   Gap | It/Node Time

     0     0 1136.72637    0   38          - 1136.72637      -     -   17s
     0     0 1174.55145    0   41          - 1174.55145      -     -  171s
H    0     0                    23290.060226 1174.55145  95.0%     -  204s
H    0     0                    3976.3362414 1174.55145  70.5%     -  225s
     0     0 1175.24098    0   41 3976.33624 1175.24098  70.4%     -  229s
     0     0 1175.28385    0   41 3976.33624 1175.28385  70.4%     -  231s
     0     0 1175.28526    0   41 3976.33624 1175.28526  70.4%     -  232s
     0     0 1179.04620    0   39 3976.33624 1179.04620  70.3%     -  262s
     0     0 1179.39228    0   39 3976.33624 1179.39228  70.3%     -  267s
     0     0 1179.61030    0   39 3976.33624 1179.61030  70.3%     -  270s
     0     0 1179.71610    0   39 3976.33624 1179.71610  70.3%     -  272s
     0     0 1179.72880    0   39 3976.33624 1179.72880  70.3%     -  274s
     0     0 1179.72925    0   39 3976.33624 1179.72925  70.3%     -  275s
     0     0 1181.40894    0   40 3976.33624 1181.40894  70.3%     -  301s
     0     0 1181.48456    0   40 3976.33624 1181.48456  70.3%     -  304s
     0     0 1181.49730    0   40 3976.33624 1181.49730  70.3%     -  305s
     0     0 1181.49732    0   40 3976.33624 1181.49732  70.3%     -  306s
     0     0 1182.11412    0   40 3976.33624 1182.11412  70.3%     -  322s
     0     0 1182.12684    0   40 3976.33624 1182.12684  70.3%     -  324s
     0     0 1182.12706    0   40 3976.33624 1182.12706  70.3%     -  325s
     0     0 1182.42966    0   41 3976.33624 1182.42966  70.3%     -  340s
H    0     0                    1381.8068078 1182.42966  14.4%     - 3565s
     0     2 1182.42966    0   41 1381.80681 1182.42966  14.4%     - 3571s
     1     4 1214.89035    1   37 1381.80681 1182.43265  14.4% 31633 3635s
     3     8 1254.91133    2   39 1381.80681 1184.66795  14.3% 22263 3748s
     7    16 1356.95945    3   39 1381.80681 1198.12058  13.3% 26589 3951s
    15    24     cutoff    4      1381.80681 1213.92789  12.1% 27984 4268s
    31    46 1234.97828    5   36 1381.80681 1214.93387  12.1% 26562 4397s
    55    82 1280.21751    6   33 1381.80681 1234.31030  10.7% 20989 4518s
    91   114 1280.29331    7   32 1381.80681 1235.25225  10.6% 17012 4627s
   127   140 1281.27073    8   31 1381.80681 1235.29112  10.6% 14340 4695s
   163   166 1292.33536    9   30 1381.80681 1235.29112  10.6% 12901 4884s
   199   183 1300.30701   10   29 1381.80681 1235.29112  10.6% 12114 8733s
H  203   183                    1381.2083725 1235.29112  10.6% 11916 8733s
   240   201 1314.80797   11   28 1381.20837 1235.29112  10.6% 11845 8940s
   284   228 1324.23662   12   27 1381.20837 1235.29112  10.6% 11118 9154s
   331   257 1335.88303   13   26 1381.20837 1235.29112  10.6% 10769 9231s
   384   301 1348.64831   14   25 1381.20837 1235.29112  10.6%  9987 9329s
   450   325     cutoff   16      1381.20837 1235.29112  10.6%  9230 9401s
   517   353     cutoff   17      1381.20837 1238.86814  10.3%  8572 9489s
   585   372 1279.86615    8   32 1381.20837 1238.86814  10.3%  8129 9601s
   660   407 1300.30851   10   30 1381.20837 1238.86814  10.3%  7738 9713s
   727   451 1308.07568   11   29 1381.20837 1238.86814  10.3%  7391 9826s
   817   464 1315.75024   12   28 1381.20837 1238.86814  10.3%  7044 9930s
   908   486 1340.95323   14   26 1381.20837 1238.86814  10.3%  6756 10178s
   983   531 1362.04969   15   27 1381.20837 1238.86814  10.3%  6723 10374s
  1072   584 1367.61675   16   26 1381.20837 1238.86814  10.3%  6552 10532s
  1181   619     cutoff   20      1381.20837 1239.73009  10.2%  6386 10809s
  1308   656 1257.18126    8   32 1381.20837 1239.73009  10.2%  6192 10988s
  1377   752 1284.77621   11   28 1381.20837 1239.73009  10.2%  6148 11103s
  1511   807 1302.88281   13   26 1381.20837 1239.73009  10.2%  5891 11232s
  1671   885 1312.00453   15   24 1381.20837 1239.73009  10.2%  5623 11331s
  1825   967 1333.15358   20   20 1381.20837 1239.73009  10.2%  5427 11417s
  2002  1007 1366.34302   28   13 1381.20837 1239.73009  10.2%  5165 11669s
  2148  1099     cutoff   36      1381.20837 1253.15121  9.27%  5140 11807s
  2306  1213 1258.03616    9   32 1381.20837 1253.15121  9.27%  5016 11964s
  2510  1254 1324.15274   12   27 1381.20837 1253.15121  9.27%  4863 12151s
  2730  1332 1290.37253   13   27 1381.20837 1253.15121  9.27%  4714 12392s
  2899  1378 1313.28689   16   24 1381.20837 1253.15121  9.27%  4721 17285s
  2986  1509 1320.64146   18   24 1381.20837 1253.15121  9.27%  4750 19418s
  3249  1551 1355.42736   26   17 1381.20837 1257.94735  8.92%  4598 19687s
  3481  1622 1318.43081   11   28 1381.20837 1257.94735  8.92%  4578 21323s
  3713  1746 1361.34150   18   24 1381.20837 1257.94735  8.92%  4600 21641s
  4009  1911     cutoff   24      1381.20837 1273.69578  7.78%  4507 21950s
  4352  2052 1320.71152   10   30 1381.20837 1273.69578  7.78%  4386 22340s
  4673  2202 1379.09211   14   26 1381.20837 1285.72901  6.91%  4343 22714s
  5070  2343 1345.42220   12   29 1381.20837 1291.61060  6.49%  4235 22947s
  5463  2495     cutoff   14      1381.20837 1294.71438  6.26%  4126 23235s
  5907  2603 1335.66406   15   24 1381.20837 1300.10420  5.87%  4017 23517s
  6284  2604 1362.87825   17   41 1381.20837 1300.10420  5.87%  3975 24030s
  6286  2605 1361.52987   29   38 1381.20837 1300.10420  5.87%  3974 24065s
  6287  2606 1366.85491   13   40 1381.20837 1300.10420  5.87%  3973 24228s
  6288  2607 1344.25231   28   40 1381.20837 1300.10420  5.87%  3972 24253s
  6289  2607 1352.51619   22   40 1381.20837 1300.10420  5.87%  3972 24262s
  6290  2608 1359.58771   28   40 1381.20837 1300.10420  5.87%  3971 24329s
  6291  2609 1333.67636   16   39 1381.20837 1300.10420  5.87%  3970 24347s
  6292  2609 1363.79220   21   41 1381.20837 1300.10420  5.87%  3970 24382s
  6293  2610 1318.94293   12   39 1381.20837 1300.10420  5.87%  3969 24397s
  6294  2611 1321.98503    8   41 1381.20837 1300.10420  5.87%  3969 24403s
  6295  2611 1329.07587   17   41 1381.20837 1300.10420  5.87%  3968 24410s
  6296  2612 1348.40597   14   41 1381.20837 1300.10420  5.87%  3967 24415s
  6297  2613 1375.33422   30   41 1381.20837 1300.10420  5.87%  3967 27587s
  6298  2616 1300.10420   11   39 1381.20837 1300.10420  5.87%  3982 27617s
  6300  2620 1300.10420   12   36 1381.20837 1300.10420  5.87%  3986 32006s
  6304  2626 1300.10420   13   38 1381.20837 1300.10420  5.87%  3994 32107s
  6312  2640 1378.75186   14   39 1381.20837 1300.10420  5.87%  4021 32324s
  6328  2648     cutoff   15      1381.20837 1300.10420  5.87%  4087 32657s
  6360  2670 1300.10420   16   35 1381.20837 1300.10420  5.87%  4157 32771s
  6396  2682 1300.10420   17   34 1381.20837 1300.10420  5.87%  4201 33021s
  6432  2700 1300.10420   18   34 1381.20837 1300.10420  5.87%  4239 33114s
  6468  2714 1300.10420   18   33 1381.20837 1300.10420  5.87%  4271 33195s
  6504  2730 1300.10420   19   32 1381.20837 1300.10420  5.87%  4288 33455s
  6546  2742 1300.10420   20   31 1381.20837 1300.10420  5.87%  4330 33540s
  6590  2760 1300.10420   21   30 1381.20837 1300.10420  5.87%  4345 33615s
  6637  2765 1300.10420   20   31 1381.20837 1300.10420  5.87%  4359 33854s
  6686  2774 1300.10420   23   28 1381.20837 1300.10420  5.87%  4385 33951s
  6746  2781 1300.10420   24   27 1381.20837 1300.10420  5.87%  4386 34124s
  6813  2785 1300.10420   25   26 1381.20837 1300.10420  5.87%  4395 34206s
  6883  2790 1300.65408   26   25 1381.20837 1300.10420  5.87%  4394 34444s
  6954  2808 1304.86000   27   24 1381.20837 1300.10420  5.87%  4415 34541s
  7029  2801 1318.01830   31   22 1381.20837 1300.10420  5.87%  4415 34774s
  7109  2793 1324.51771   31   22 1381.20837 1300.10420  5.87%  4435 35041s
  7188  2811 1328.71770   34   19 1381.20837 1300.10420  5.87%  4449 35297s
  7286  2820 1349.28074   39   14 1381.20837 1300.10420  5.87%  4456 36908s
  7360  2869 1353.64374   40   13 1381.20837 1300.10420  5.87%  4464 37005s
  7496  2852 1365.24980   44    8 1381.20837 1300.10420  5.87%  4434 40246s
  7626  2878 1373.44496   48    2 1381.20837 1300.10420  5.87%  4427 40356s
  7774  2890     cutoff   50      1381.20837 1300.10420  5.87%  4410 40478s
  7940  2885 1300.10420   19   31 1381.20837 1300.10420  5.87%  4386 40607s
  8126  2879 1300.10420   22   28 1381.20837 1300.10420  5.87%  4361 40907s
  8272  2887 1304.00509   26   24 1381.20837 1300.10420  5.87%  4375 41049s
  8433  2885 1327.94875   33   19 1381.20837 1300.10420  5.87%  4363 41332s
  8614  2939     cutoff   45      1381.20837 1300.10420  5.87%  4356 41449s
  8815  2969 1370.87786   46    3 1381.20837 1300.10420  5.87%  4327 41804s
  9060  2949 1351.85149   37   14 1381.20837 1300.10420  5.87%  4303 42059s
  9292  2909     cutoff   47      1381.20837 1300.10420  5.87%  4283 44839s
  9467  2984 1363.41988   24   25 1381.20837 1300.10420  5.87%  4304 44988s
  9737  3015     cutoff   27      1381.20837 1300.10420  5.87%  4266 45285s
 10028  3075 1348.14503   25   25 1381.20837 1300.10420  5.87%  4230 45595s
 10345  3086     cutoff   30      1381.20837 1300.10420  5.87%  4189 45907s
 10695  3051 1356.05929   21   30 1381.20837 1300.10420  5.87%  4148 49888s
 10914  3120     cutoff   23      1381.20837 1300.10420  5.87%  4139 50213s
 11332  3120     cutoff   23      1381.20837 1300.10420  5.87%  4089 50542s
 11765  3102 1300.10420   22   29 1381.20837 1300.10420  5.87%  4043 50844s
 12046  3220 1304.78144   24   27 1381.20837 1300.10420  5.87%  4059 51169s
 12459  3232 1323.47589   27   24 1381.20837 1300.10420  5.87%  4026 51519s
 12860  3193 1336.33123   31   21 1381.20837 1300.10420  5.87%  4012 51951s
 13227  3166 1360.88305   35   17 1381.20837 1309.50437  5.19%  4019 52306s
 13698  3096 1325.33984   29   24 1381.20837 1309.69411  5.18%  3986 56715s
 13881  3232 1336.60663   32   21 1381.20837 1309.69411  5.18%  3979 58592s
 14418  3377     cutoff   47      1381.20837 1312.52106  4.97%  3940 58931s
 15115  3596     cutoff   32      1381.20837 1317.80187  4.59%  3871 59263s
 15766  3694 1368.38295   34   17 1381.20837 1318.02959  4.57%  3819 60991s
 16498  3724 1366.61493   36   16 1381.20837 1318.20049  4.56%  3765 65939s
 16835  4000     cutoff   39      1381.20837 1318.73589  4.52%  3748 66366s
 17740  4268 1375.46661   34   17 1381.20837 1322.16596  4.27%  3677 66705s
 18547  4570 1352.12139   26   25 1381.20837 1322.98057  4.22%  3628 67031s
 19467  4819 1358.97397   26   25 1381.20837 1324.48876  4.11%  3568 70501s
 20406  5091 1380.13471   40   11 1381.20837 1325.67648  4.02%  3510 70994s
 21452  5326     cutoff   38      1381.20837 1327.05658  3.92%  3457 73331s
 22437  5555 1355.52070   33   20 1381.20837 1328.70919  3.80%  3418 73719s
 23459  5683 1380.52531   26   24 1381.20837 1330.50511  3.67%  3386 76476s
 24651  5975 1379.08262   28   23 1381.20837 1331.34180  3.61%  3333 78161s
 25937  6326 1367.26666   35   17 1381.20837 1332.15305  3.55%  3285 80751s
 27400  6448 1379.02721   35   17 1381.20837 1333.05795  3.49%  3226 85194s
 27818  6841     cutoff   36      1381.20837 1333.45306  3.46%  3206 85743s
 29543  7181     cutoff   38      1381.20837 1335.30006  3.32%  3137 89178s
 31039  7658 1373.34428   43    6 1381.20837 1336.68770  3.22%  3100 92778s
 33516  7939     cutoff   36      1381.20837 1339.36576  3.03%  3039 95377s
 35853  8316 1359.40972   34   19 1381.20837 1341.12717  2.90%  2993 98797s
 37922  8774 1360.52811   34   19 1381.20837 1342.61148  2.79%  2935 103518s
 40774  9006     cutoff   40      1381.20837 1344.00676  2.69%  2846 107084s
 42449  9366 1378.69456   33   18 1381.20837 1344.65006  2.65%  2794 111005s
 44881  9701     cutoff   40      1381.20837 1345.67066  2.57%  2730 114217s
 47174  9830 1380.75632   40   12 1381.20837 1346.22606  2.53%  2677 117253s
 49217 10101 1364.33425   33   18 1381.20837 1346.78331  2.49%  2634 120413s
 52286 10251 1356.53340   30   21 1381.20837 1348.79132  2.35%  2567 123518s
 53971 10460     cutoff   36      1381.20837 1349.08431  2.33%  2533 126384s
 56364 10598     cutoff   32      1381.20837 1350.01424  2.26%  2496 129466s
 58596 10762     cutoff   33      1381.20837 1350.87139  2.20%  2455 132142s
 60493 10906 1372.64094   32   20 1381.20837 1350.87452  2.20%  2422 135017s
 62189 11111 1374.09250   34   18 1381.20837 1351.44461  2.15%  2402 137486s
 64571 11252     cutoff   33      1381.20837 1352.20746  2.10%  2368 140952s
 66703 11251 1373.55124   29   24 1381.20837 1353.23359  2.03%  2342 142094s
 69821 11290     cutoff   39      1381.20837 1354.49314  1.93%  2315 145379s
H70161 11290                    1381.2083721 1354.54275  1.93%  2311 145379s
 72811 11287     cutoff   38      1381.20837 1355.29055  1.88%  2287 146816s
 74993 11259 1371.63978   35   17 1381.20837 1355.84798  1.84%  2262 149844s
H75016 11259                    1381.2083715 1355.84798  1.84%  2261 149844s
H76815 11231                    1381.2083714 1355.84798  1.84%  2245 152942s
 78384 11218 1374.49425   36   16 1381.20837 1356.02022  1.82%  2232 156645s
 79722 11148 1370.23556   36   13 1381.20837 1356.11359  1.82%  2222 159634s
 82774 11104 1379.94108   39   11 1381.20837 1357.41454  1.72%  2196 162730s
 85173 11032 1371.15278   37   14 1381.20837 1357.74519  1.70%  2179 166035s
 87331 10872     cutoff   37      1381.20837 1358.26633  1.66%  2163 169566s
 90178 10757 1378.00048   34   17 1381.20837 1359.06650  1.60%  2150 172563s
 92606 10563     cutoff   40      1381.20837 1359.40707  1.58%  2133 173631s
 95738 10420 1378.28432   42    9 1381.20837 1360.34244  1.51%  2116 176850s
 98390 10291 1376.97769   43   10 1381.20837 1360.76805  1.48%  2098 179603s
 100282 10143 1376.81788   37   15 1381.20837 1360.93237  1.47%  2085 182467s
 102380  9918     cutoff   24      1381.20837 1361.23449  1.45%  2071 185434s
 104655  9596 1374.91747   39   11 1381.20837 1361.53040  1.42%  2058 188326s
 107255  9228 1373.56156   32   21 1381.20837 1362.38530  1.36%  2042 191062s
 109977  8911     cutoff   34      1381.20837 1363.01472  1.32%  2028 194245s
 112117  8471 1373.84813   35   14 1381.20837 1363.46583  1.28%  2018 197568s
 115204  8005 1380.12054   39   10 1381.20837 1364.28929  1.22%  2002 198487s
 118336  7512 1375.26781   37   15 1381.20837 1364.84067  1.19%  1989 201779s
 121210  6939     cutoff   33      1381.20837 1365.46505  1.14%  1978 202639s
 124342  6416     cutoff   41      1381.20837 1366.32444  1.08%  1966 205601s
 127194  6041     cutoff   42      1381.20837 1366.88751  1.04%  1953 207988s
 129309  5442     cutoff   32      1381.20837 1367.05492  1.02%  1941 208710s

Cutting planes:
  Gomory: 1
  Implied bound: 523
  MIR: 2314
  Flow cover: 3081
  RLT: 124
  Relax-and-lift: 458

Explored 132441 nodes (254935968 simplex iterations) in 208718.36 seconds (416756.96 work units)
Thread count was 36 (of 36 available processors)

Solution count 4: 1381.21 1381.81 3976.34 23290.1 

Optimal solution found (tolerance 1.00e-02)
Best objective 1.381208372509e+03, best bound 1.367974189842e+03, gap 0.9582%
Termination condition:  optimal
# ==========================================================
# = Solver Results                                         =
# ==========================================================
# ----------------------------------------------------------
#   Problem Information
# ----------------------------------------------------------
Problem: 
- Name: x1
  Lower bound: 1367.974189842161
  Upper bound: 1381.20837250924
  Number of objectives: 1
  Number of constraints: 509304
  Number of variables: 362647
  Number of binary variables: 45
  Number of integer variables: 45
  Number of continuous variables: 362602
  Number of nonzeros: 1315872
  Sense: minimize
# ----------------------------------------------------------
#   Solver Information
# ----------------------------------------------------------
Solver: 
- Status: ok
  Return code: 0
  Message: Model was solved to optimality (subject to tolerances), and an optimal solution is available.
  Termination condition: optimal
  Termination message: Model was solved to optimality (subject to tolerances), and an optimal solution is available.
  Wall time: 208718.3651330471
  Error rc: 0
  Time: 208722.10046768188
# ----------------------------------------------------------
#   Solution Information
# ----------------------------------------------------------
Solution: 
- number of solutions: 0
  number of solutions displayed: 0
# ============================================================================= #
# ============================================================================= #
fixing: vNetworkInvest[2030,bus008,bus005,cac2]
fixing: vNetworkInvest[2030,bus005,bus006,cac1]
fixing: vNetworkInvest[2030,bus065,bus068,cac2]
fixing: vNetworkInvest[2030,bus094,bus100,cac1]
fixing: vNetworkInvest[2030,bus008,bus005,cac1]
fixing: vNetworkInvest[2030,bus033,bus037,cac1]
fixing: vNetworkInvest[2030,bus082,bus083,cac2]
fixing: vNetworkInvest[2030,bus065,bus068,cac1]
fixing: vNetworkInvest[2030,bus038,bus065,cac2]
fixing: vNetworkInvest[2030,bus082,bus083,cac1]
fixing: vNetworkInvest[2030,bus001,bus003,cac1]
fixing: vNetworkInvest[2030,bus015,bus033,cac2]
fixing: vNetworkInvest[2030,bus017,bus113,cac2]
fixing: vNetworkInvest[2030,bus077,bus082,cac1]
fixing: vNetworkInvest[2030,bus080,bus099,cac2]
fixing: vNetworkInvest[2030,bus015,bus033,cac1]
fixing: vNetworkInvest[2030,bus017,bus113,cac1]
fixing: vNetworkInvest[2030,bus025,bus027,cac1]
fixing: vNetworkInvest[2030,bus038,bus065,cac1]
fixing: vNetworkInvest[2030,bus080,bus099,cac1]
fixing: vNetworkInvest[2030,bus069,bus077,cac2]
fixing: vNetworkInvest[2030,bus038,bus037,cac2]
fixing: vNetworkInvest[2030,bus023,bus024,cac1]
fixing: vNetworkInvest[2030,bus038,bus037,cac1]
fixing: vNetworkInvest[2030,bus069,bus077,cac1]
fixing: vNetworkInvest[2030,bus026,bus030,cac2]
fixing: vNetworkInvest[2030,bus012,bus117,cac1]
fixing: vNetworkInvest[2030,bus023,bus032,cac2]
fixing: vNetworkInvest[2030,bus074,bus075,cac1]
fixing: vNetworkInvest[2030,bus015,bus017,cac1]
fixing: vNetworkInvest[2030,bus030,bus038,cac1]
fixing: vNetworkInvest[2030,bus003,bus005,cac2]
fixing: vNetworkInvest[2030,bus026,bus030,cac1]
fixing: vNetworkInvest[2030,bus023,bus032,cac1]
fixing: vNetworkInvest[2030,bus068,bus069,cac2]
fixing: vNetworkInvest[2030,bus099,bus100,cac2]
fixing: vNetworkInvest[2030,bus025,bus027,cac2]
fixing: vNetworkInvest[2030,bus099,bus100,cac1]
fixing: vNetworkInvest[2030,bus003,bus005,cac1]
fixing: vNetworkInvest[2030,bus068,bus069,cac1]
fixing: vNetworkInvest[2030,bus093,bus094,cac2]
fixing: vNetworkInvest[2030,bus005,bus006,cac2]
fixing: vNetworkInvest[2030,bus008,bus030,cac1]
fixing: vNetworkInvest[2030,bus094,bus100,cac2]
fixing: vNetworkInvest[2030,bus093,bus094,cac1]
Number of fixed variables:  45
# ============================================================================= #
# ============================================================================= #
WARNING: Implicitly replacing the Component attribute dual (type=<class
'pyomo.core.base.suffix.Suffix'>) on block 'openStarNet - Open Version of the
StartNetLite Model (Long Term Transmission Expansion Planning) - Version 1.0.0
- January 16, 2023' with a new Component (type=<class
'pyomo.core.base.suffix.Suffix'>). This is usually indicative of a modelling
error. To avoid this warning, use block.del_component() and
block.add_component().
WARNING: Implicitly replacing the Component attribute rc (type=<class
'pyomo.core.base.suffix.Suffix'>) on block 'openStarNet - Open Version of the
StartNetLite Model (Long Term Transmission Expansion Planning) - Version 1.0.0
- January 16, 2023' with a new Component (type=<class
'pyomo.core.base.suffix.Suffix'>). This is usually indicative of a modelling
error. To avoid this warning, use block.del_component() and
block.add_component().
# ==========================================================
# = Solver Results                                         =
# ==========================================================
# ----------------------------------------------------------
#   Problem Information
# ----------------------------------------------------------
Problem: 
- Name: x1
  Lower bound: 1381.20837250924
  Upper bound: 1381.20837250924
  Number of objectives: 1
  Number of constraints: 509304
  Number of variables: 362602
  Number of binary variables: 0
  Number of integer variables: 0
  Number of continuous variables: 362602
  Number of nonzeros: 1252647
  Sense: minimize
# ----------------------------------------------------------
#   Solver Information
# ----------------------------------------------------------
Solver: 
- Status: ok
  Return code: 0
  Message: Model was solved to optimality (subject to tolerances), and an optimal solution is available.
  Termination condition: optimal
  Termination message: Model was solved to optimality (subject to tolerances), and an optimal solution is available.
  Wall time: 4.447325944900513
  Error rc: 0
  Time: 9.369110107421875
# ----------------------------------------------------------
#   Solution Information
# ----------------------------------------------------------
Solution: 
- number of solutions: 0
  number of solutions displayed: 0
Solving                               ...  209154 s
Objective function value                   1381.21 M€
Objective function value                   1381.20837250924
Writing         cost summary results  ...  0 s
Writing           investment results  ...  0 s
Writing    network operation results  ...  1 s
Writing generation operation results  ...  2 s
Writing        ESS operation results  ...  0 s
Traceback (most recent call last):
  File "/lustre1/scratch/348/vsc34888/JointResearch/05.Models/06.Benchmarking/D.Representative_days_based_on_RES_and_Demand/oSN_Main_DCOPF.py", line 1690, in <module>
    main(openStarNet)
  File "/lustre1/scratch/348/vsc34888/JointResearch/05.Models/06.Benchmarking/D.Representative_days_based_on_RES_and_Demand/oSN_Main_DCOPF.py", line 137, in main
    model = saving_results(args.dir, args.case, args.solver, model, model)
            ^^^^^^^^^^^^^^^^^^^^^^^^^^^^^^^^^^^^^^^^^^^^^^^^^^^^^^^^^^^^^^
  File "/lustre1/scratch/348/vsc34888/JointResearch/05.Models/06.Benchmarking/D.Representative_days_based_on_RES_and_Demand/oSN_Main_DCOPF.py", line 1662, in saving_results
    OutputResults = pd.Series(data=[optmodel.dual[optmodel.eBalanceP[p,sc,st,n,nd]]*1e3/model.pScenProb[p,sc]()/model.pLoadLevelDuration[n]() for p,sc,n,nd,st in model.psnnd*model.st if (st,n) in model.s2n], index=pd.MultiIndex.from_tuples(model.psnnd))
                                   ^^^^^^^^^^^^^^^^^^^^^^^^^^^^^^^^^^^^^^^^^^^^^^^^^^^^^^^^^^^^^^^^^^^^^^^^^^^^^^^^^^^^^^^^^^^^^^^^^^^^^^^^^^^^^^^^^^^^^^^^^^^^^^^^^^^^^^^^^^^^^^^^^^^^^^^^^^^^^^^^^^^^^^^^^^^
  File "/lustre1/scratch/348/vsc34888/JointResearch/05.Models/06.Benchmarking/D.Representative_days_based_on_RES_and_Demand/oSN_Main_DCOPF.py", line 1662, in <listcomp>
    OutputResults = pd.Series(data=[optmodel.dual[optmodel.eBalanceP[p,sc,st,n,nd]]*1e3/model.pScenProb[p,sc]()/model.pLoadLevelDuration[n]() for p,sc,n,nd,st in model.psnnd*model.st if (st,n) in model.s2n], index=pd.MultiIndex.from_tuples(model.psnnd))
                                                  ~~~~~~~~~~~~~~~~~~^^^^^^^^^^^^^^
  File "/data/leuven/348/vsc34888/miniconda3/envs/Jr23/lib/python3.11/site-packages/pyomo/core/base/indexed_component.py", line 649, in __getitem__
    return self._getitem_when_not_present(index)
           ^^^^^^^^^^^^^^^^^^^^^^^^^^^^^^^^^^^^^
  File "/data/leuven/348/vsc34888/miniconda3/envs/Jr23/lib/python3.11/site-packages/pyomo/core/base/constraint.py", line 830, in _getitem_when_not_present
    raise KeyError(idx)
KeyError: (2030, 'sc01', 'sti305', '01-02 04:00:00+01:00', 'bus009')

 #### Academic research license - for non-commercial use only #### 

IEEE118_ByStages_nc400
/lustre1/scratch/348/vsc34888/JointResearch/05.Models/06.Benchmarking/D.Representative_days_based_on_RES_and_Demand
gurobi
['oSN_Main_DCOPF.py', '--case', 'IEEE118_ByStages_nc400']
Namespace(case='IEEE118_ByStages_nc400', dir='/lustre1/scratch/348/vsc34888/JointResearch/05.Models/06.Benchmarking/D.Representative_days_based_on_RES_and_Demand', solver='gurobi')
Namespace(case='IEEE118_ByStages_nc400', dir='/lustre1/scratch/348/vsc34888/JointResearch/05.Models/06.Benchmarking/D.Representative_days_based_on_RES_and_Demand', solver='gurobi')
Reading    input data                 ...  1 s
Setting up input data                 ...  2 s
Generating objective function         ...  3 s
Generating operation & investment     ...  0 s
Generating balance                    ...  40 s
Generating storage operation          ...  0 s
Generating generation commitment      ...  109 s
Generating generation capacity        ...  104 s
Generating network    capacity        ...  136 s
Generating network    constraints     ...  351 s
Econometric analysis  constraints     ...  0 s
slurmstepd: error: *** JOB 55402827 ON r27i27n20 CANCELLED AT 2023-12-07T14:07:38 DUE TO TIME LIMIT ***
